1 -1 -2 0
1 1 3 0
1 -1 4 0
1 -5 -6 0
1 5 7 0
1 -6 1 0
1 8 -9 0
1 8 1 0
1 8 -10 0
1 -3 11 0
1 -3 1 0
1 3 -4 0
1 -4 12 0
1 4 10 0
1 -13 -14 0
1 -13 -7 0
1 -15 -16 0
1 15 -17 0
1 -16 -18 0
1 -16 19 0
1 7 20 0
1 -7 21 0
1 7 -22 0
1 7 -23 0
1 7 -24 0
1 25 -26 0
1 25 5 0
1 19 22 0
1 19 27 0
1 19 -5 0
1 28 16 0
1 28 29 0
1 -28 24 0
1 30 -17 0
1 31 17 0
1 31 -18 0
1 -31 -32 0
1 23 25 0
1 -23 17 0
1 -23 32 0
1 -33 -20 0
1 33 34 0
1 18 15 0
1 -18 34 0
1 32 35 0
1 32 34 0
1 -17 36 0
1 37 -38 0
1 -2 -39 0
1 -2 40 0
1 41 -42 0
1 -41 -43 0
1 44 45 0
1 44 -46 0
1 45 2 0
1 -46 -45 0
1 -46 47 0
1 -46 11 0
1 -46 -48 0
1 46 41 0
1 46 37 0
1 38 -48 0
1 -38 37 0
1 40 49 0
1 -50 42 0
1 50 -27 0
1 -14 13 0
1 -14 46 0
1 12 -46 0
1 -12 15 0
1 -12 -4 0
1 11 -51 0
1 11 -16 0
1 -11 52 0
1 11 -46 0
1 11 42 0
1 11 4 0
1 -53 51 0
1 -53 -54 0
1 53 -50 0
1 51 -55 0
1 -51 -53 0
1 51 56 0
1 -51 -41 0
1 -57 58 0
1 -57 11 0
1 -57 41 0
1 42 47 0
1 42 -11 0
1 42 -57 0
1 56 19 0
1 56 -30 0
1 56 4 0
1 9 -28 0
1 -9 -31 0
1 9 59 0
1 -9 -4 0
1 -29 -59 0
1 29 -60 0
1 -29 61 0
1 55 -28 0
1 -55 -62 0
1 -55 63 0
1 -55 -61 0
1 59 61 0
1 -59 64 0
1 61 -12 0
1 61 64 0
1 -62 -65 0
1 -62 -11 0
1 66 9 0
1 -22 -67 0
1 22 -60 0
1 22 7 0
1 22 32 0
1 -24 -65 0
1 24 -59 0
1 24 -68 0
1 -35 -69 0
1 35 26 0
1 -35 -70 0
1 35 60 0
1 35 63 0
1 -35 -61 0
1 -64 -69 0
1 -63 71 0
1 -63 72 0
1 63 73 0
1 63 74 0
1 -63 -75 0
1 67 -76 0
1 -67 55 0
1 -67 -71 0
1 -67 64 0
1 -60 -55 0
1 60 -3 0
1 60 22 0
1 -60 -77 0
1 -60 74 0
1 68 78 0
1 -68 60 0
1 68 79 0
1 -72 -26 0
1 -72 -33 0
1 72 34 0
1 34 18 0
1 34 72 0
1 71 80 0
1 -75 26 0
1 -75 36 0
1 -75 81 0
1 -82 26 0
1 -82 -72 0
1 -82 83 0
1 -26 -84 0
1 26 72 0
1 26 -75 0
1 -85 69 0
1 85 84 0
1 85 -35 0
1 85 86 0
1 69 87 0
1 -69 -74 0
1 -69 -64 0
1 88 26 0
1 -88 89 0
1 -90 36 0
1 91 26 0
1 91 87 0
1 -91 -81 0
1 -92 -81 0
1 -81 89 0
1 -81 -92 0
1 89 -88 0
1 -80 -88 0
1 -80 32 0
1 -80 -75 0
1 36 -93 0
1 36 71 0
1 36 -94 0
1 36 -75 0
1 95 -96 0
1 -95 -37 0
1 -43 41 0
1 -97 98 0
1 97 -99 0
1 100 52 0
1 100 -97 0
1 -100 101 0
1 100 49 0
1 100 102 0
1 -98 100 0
1 98 49 0
1 -99 96 0
1 99 39 0
1 -99 -103 0
1 -96 95 0
1 -104 -98 0
1 -104 -105 0
1 104 -106 0
1 107 108 0
1 49 109 0
1 -52 -110 0
1 -52 -111 0
1 -111 107 0
1 111 -112 0
1 -111 104 0
1 111 -113 0
1 -114 -47 0
1 114 115 0
1 -114 -48 0
1 114 111 0
1 -105 116 0
1 105 117 0
1 105 43 0
1 -118 -119 0
1 -48 109 0
1 -48 45 0
1 48 -56 0
1 47 -120 0
1 -47 110 0
1 47 -121 0
1 47 -48 0
1 112 109 0
1 112 110 0
1 -58 -110 0
1 -109 58 0
1 109 -47 0
1 109 48 0
1 -109 -49 0
1 121 58 0
1 -121 -122 0
1 -121 70 0
1 -121 112 0
1 121 -48 0
1 -121 -49 0
1 123 -124 0
1 123 52 0
1 123 122 0
1 -123 125 0
1 123 126 0
1 110 47 0
1 110 -52 0
1 -110 -49 0
1 -110 123 0
1 -54 -65 0
1 54 127 0
1 -54 -128 0
1 54 -62 0
1 65 -119 0
1 65 62 0
1 -70 -127 0
1 -70 -129 0
1 70 130 0
1 131 -128 0
1 128 -132 0
1 128 133 0
1 -127 134 0
1 135 70 0
1 -135 40 0
1 -135 136 0
1 -78 62 0
1 78 -59 0
1 78 -60 0
1 78 -61 0
1 137 -129 0
1 137 -62 0
1 137 -138 0
1 137 -66 0
1 -137 -139 0
1 140 141 0
1 -140 -142 0
1 -140 60 0
1 -143 140 0
1 -143 -142 0
1 -143 -130 0
1 143 -141 0
1 -143 -144 0
1 -145 -87 0
1 -145 -53 0
1 145 -137 0
1 145 -131 0
1 -138 70 0
1 -138 -137 0
1 129 140 0
1 -129 -70 0
1 129 -133 0
1 129 143 0
1 146 147 0
1 146 -78 0
1 -146 148 0
1 146 -133 0
1 -149 67 0
1 -149 -145 0
1 149 -134 0
1 149 150 0
1 149 -85 0
1 74 -60 0
1 74 63 0
1 74 -141 0
1 74 144 0
1 74 68 0
1 -87 69 0
1 -87 -91 0
1 -87 -151 0
1 -87 -145 0
1 -87 -144 0
1 -152 69 0
1 -152 -138 0
1 -152 -144 0
1 -150 -93 0
1 -150 94 0
1 150 143 0
1 -144 149 0
1 144 140 0
1 -144 -150 0
1 -142 87 0
1 142 -141 0
1 -142 -153 0
1 -141 -147 0
1 -141 -149 0
1 141 -66 0
1 141 143 0
1 -84 69 0
1 -84 -26 0
1 84 36 0
1 84 -77 0
1 84 154 0
1 84 82 0
1 84 -79 0
1 -154 69 0
1 -154 -36 0
1 -154 77 0
1 -154 73 0
1 154 -85 0
1 93 83 0
1 94 -76 0
1 -94 150 0
1 -94 -73 0
1 -94 -86 0
1 -94 -83 0
1 -94 -79 0
1 -73 -87 0
1 -76 155 0
1 -76 156 0
1 77 -157 0
1 77 93 0
1 77 84 0
1 -77 -87 0
1 -77 158 0
1 -77 159 0
1 77 160 0
1 79 93 0
1 -79 84 0
1 -79 161 0
1 -79 162 0
1 79 -77 0
1 79 154 0
1 155 89 0
1 -155 86 0
1 -163 73 0
1 -163 -86 0
1 -163 -81 0
1 164 86 0
1 164 165 0
1 -164 -160 0
1 83 166 0
1 -83 -163 0
1 83 82 0
1 -166 -167 0
1 166 156 0
1 86 -168 0
1 -86 -169 0
1 -86 -156 0
1 86 -170 0
1 -168 170 0
1 -171 172 0
1 -171 83 0
1 -172 166 0
1 172 -161 0
1 -172 -171 0
1 173 174 0
1 -173 165 0
1 174 -166 0
1 174 175 0
1 -176 177 0
1 176 -178 0
1 -176 -171 0
1 179 -176 0
1 179 -180 0
1 179 -173 0
1 -165 174 0
1 165 80 0
1 175 -172 0
1 175 181 0
1 182 183 0
1 -182 184 0
1 185 186 0
1 -187 -188 0
1 189 106 0
1 190 191 0
1 190 103 0
1 192 -193 0
1 192 194 0
1 184 -195 0
1 184 196 0
1 -184 -191 0
1 -106 104 0
1 106 190 0
1 108 96 0
1 -108 190 0
1 103 -197 0
1 103 -190 0
1 -197 96 0
1 -197 -198 0
1 199 200 0
1 -199 201 0
1 199 101 0
1 199 -188 0
1 188 -202 0
1 -188 120 0
1 -203 204 0
1 186 -108 0
1 -186 191 0
1 -186 -185 0
1 -101 205 0
1 101 -96 0
1 101 199 0
1 -101 -206 0
1 -120 -188 0
1 116 -207 0
1 116 -208 0
1 -116 118 0
1 116 198 0
1 -116 -204 0
1 -116 188 0
1 -202 -205 0
1 202 207 0
1 -202 -209 0
1 -198 -116 0
1 198 210 0
1 -207 119 0
1 -207 210 0
1 -207 -211 0
1 -206 212 0
1 206 205 0
1 206 -200 0
1 206 -120 0
1 206 197 0
1 -205 213 0
1 126 114 0
1 126 105 0
1 119 198 0
1 -119 105 0
1 119 123 0
1 -125 -214 0
1 125 113 0
1 125 123 0
1 125 -211 0
1 211 125 0
1 211 131 0
1 102 215 0
1 -102 -122 0
1 102 211 0
1 -208 -202 0
1 -208 116 0
1 -208 102 0
1 208 -139 0
1 208 211 0
1 -216 125 0
1 -209 -202 0
1 -209 -96 0
1 209 -217 0
1 -209 218 0
1 -122 -219 0
1 139 -122 0
1 -139 121 0
1 139 117 0
1 -215 -102 0
1 -215 -113 0
1 113 122 0
1 -113 -220 0
1 113 211 0
1 -115 114 0
1 115 -215 0
1 -115 221 0
1 115 148 0
1 117 219 0
1 -219 222 0
1 -219 -217 0
1 219 223 0
1 219 -117 0
1 219 -224 0
1 -219 139 0
1 219 -211 0
1 -134 -129 0
1 -134 -115 0
1 -134 -124 0
1 133 129 0
1 -133 -225 0
1 -133 135 0
1 133 -113 0
1 -151 -148 0
1 151 -124 0
1 148 -226 0
1 148 225 0
1 -148 -227 0
1 -148 124 0
1 -228 109 0
1 -228 229 0
1 -228 230 0
1 231 -229 0
1 231 232 0
1 -124 -233 0
1 124 -148 0
1 225 -234 0
1 -225 224 0
1 225 -235 0
1 -147 84 0
1 147 -226 0
1 -147 142 0
1 147 136 0
1 147 -236 0
1 -147 -227 0
1 147 146 0
1 -147 -138 0
1 -236 226 0
1 236 142 0
1 236 231 0
1 236 -146 0
1 -236 141 0
1 153 -237 0
1 -153 238 0
1 -153 142 0
1 -153 -94 0
1 153 239 0
1 153 -227 0
1 132 157 0
1 132 162 0
1 -227 -157 0
1 -227 -229 0
1 -227 147 0
1 227 -132 0
1 -227 151 0
1 -227 -240 0
1 -226 232 0
1 -136 -226 0
1 -136 -151 0
1 136 -241 0
1 136 -135 0
1 157 -237 0
1 -157 242 0
1 162 -157 0
1 -162 142 0
1 162 227 0
1 162 79 0
1 -160 -243 0
1 160 79 0
1 238 -157 0
1 238 244 0
1 -238 -245 0
1 246 169 0
1 -246 170 0
1 -246 -160 0
1 -237 -129 0
1 237 -247 0
1 242 -237 0
1 242 -160 0
1 -170 -168 0
1 170 246 0
1 -170 171 0
1 170 248 0
1 161 243 0
1 249 250 0
1 -249 -251 0
1 -169 -246 0
1 252 253 0
1 -252 161 0
1 252 254 0
1 252 248 0
1 -252 -255 0
1 252 -160 0
1 248 -256 0
1 -248 -169 0
1 -248 -181 0
1 248 255 0
1 -248 257 0
1 251 -258 0
1 -251 -244 0
1 251 -245 0
1 -243 258 0
1 -243 -259 0
1 -243 -251 0
1 -243 245 0
1 -255 -252 0
1 -255 -159 0
1 255 260 0
1 253 -165 0
1 -253 -255 0
1 256 -250 0
1 256 175 0
1 260 261 0
1 260 -262 0
1 -260 -263 0
1 -250 -264 0
1 250 -256 0
1 159 -265 0
1 -159 -77 0
1 -266 254 0
1 -266 249 0
1 266 -79 0
1 -263 -177 0
1 -263 -254 0
1 -177 -250 0
1 177 -267 0
1 -177 -263 0
1 268 261 0
1 268 -167 0
1 -261 -265 0
1 -261 180 0
1 -261 -269 0
1 269 -177 0
1 -167 256 0
1 -167 -166 0
1 167 263 0
1 -167 -270 0
1 -271 267 0
1 -271 262 0
1 271 268 0
1 -271 263 0
1 267 256 0
1 267 -268 0
1 -267 -181 0
1 267 272 0
1 -273 167 0
1 -273 -178 0
1 -270 167 0
1 -270 -274 0
1 275 269 0
1 276 -167 0
1 276 -277 0
1 -276 -274 0
1 178 -261 0
1 178 270 0
1 180 179 0
1 -180 273 0
1 180 178 0
1 274 -278 0
1 274 279 0
1 274 280 0
1 -274 272 0
1 -277 281 0
1 -277 -282 0
1 277 272 0
1 277 -274 0
1 -277 270 0
1 183 -283 0
1 -183 284 0
1 285 286 0
1 285 287 0
1 285 288 0
1 -285 284 0
1 289 290 0
1 289 -288 0
1 286 -291 0
1 -286 -283 0
1 286 292 0
1 293 -193 0
1 293 -292 0
1 -294 -284 0
1 -294 -285 0
1 -292 -286 0
1 292 287 0
1 -292 -192 0
1 -292 -288 0
1 -292 184 0
1 -292 106 0
1 193 290 0
1 -194 -295 0
1 194 195 0
1 -195 -290 0
1 -195 197 0
1 -195 296 0
1 -290 -297 0
1 290 289 0
1 288 -298 0
1 287 -299 0
1 -287 285 0
1 191 -296 0
1 -191 -192 0
1 191 -189 0
1 -300 295 0
1 300 190 0
1 204 -297 0
1 204 -296 0
1 -204 301 0
1 -204 -186 0
1 297 203 0
1 -297 288 0
1 295 -214 0
1 296 300 0
1 -302 -303 0
1 302 -304 0
1 -301 302 0
1 -301 299 0
1 -301 -191 0
1 -301 305 0
1 306 205 0
1 306 -295 0
1 306 -307 0
1 -306 188 0
1 200 307 0
1 -200 196 0
1 214 -308 0
1 -214 206 0
1 -212 -295 0
1 -212 309 0
1 212 211 0
1 307 -200 0
1 -307 310 0
1 307 -204 0
1 311 -200 0
1 311 297 0
1 311 310 0
1 311 -190 0
1 -311 312 0
1 308 -192 0
1 -308 310 0
1 308 -305 0
1 -213 313 0
1 213 206 0
1 210 -207 0
1 -210 311 0
1 -210 -139 0
1 -210 -305 0
1 -218 -215 0
1 -218 201 0
1 312 307 0
1 -312 -311 0
1 -201 314 0
1 -201 -218 0
1 201 -213 0
1 -201 199 0
1 314 315 0
1 314 -217 0
1 314 218 0
1 314 213 0
1 -314 201 0
1 314 -316 0
1 -314 -317 0
1 -318 -319 0
1 -318 320 0
1 309 -321 0
1 309 218 0
1 217 -310 0
1 -217 201 0
1 317 322 0
1 317 -323 0
1 317 133 0
1 324 201 0
1 -324 323 0
1 -325 -322 0
1 -325 326 0
1 -325 327 0
1 323 -222 0
1 -323 -217 0
1 -323 198 0
1 323 325 0
1 -328 -222 0
1 -328 329 0
1 328 312 0
1 330 331 0
1 -222 321 0
1 222 -225 0
1 222 326 0
1 222 124 0
1 224 -219 0
1 -234 332 0
1 -234 -221 0
1 -234 -333 0
1 239 -328 0
1 -239 221 0
1 239 -153 0
1 -327 -334 0
1 -332 325 0
1 326 -335 0
1 336 337 0
1 336 -239 0
1 -336 -325 0
1 336 -338 0
1 339 -340 0
1 339 223 0
1 339 -231 0
1 -339 333 0
1 -232 162 0
1 -232 124 0
1 334 -341 0
1 334 -136 0
1 334 -333 0
1 -241 334 0
1 241 -226 0
1 -241 332 0
1 241 158 0
1 241 341 0
1 -241 -333 0
1 -220 342 0
1 -220 -343 0
1 -333 344 0
1 -223 -339 0
1 -223 -345 0
1 -223 241 0
1 223 -239 0
1 -343 -132 0
1 343 -136 0
1 -343 -227 0
1 343 -220 0
1 -346 233 0
1 346 341 0
1 -342 -230 0
1 -342 240 0
1 342 346 0
1 230 334 0
1 230 -347 0
1 230 -348 0
1 230 -342 0
1 -230 341 0
1 230 -349 0
1 230 -245 0
1 341 -334 0
1 -341 241 0
1 -341 -349 0
1 341 -245 0
1 341 346 0
1 233 -350 0
1 -233 -241 0
1 -233 351 0
1 -352 -233 0
1 -352 353 0
1 352 350 0
1 352 -354 0
1 -352 346 0
1 245 -237 0
1 -245 -240 0
1 -245 -255 0
1 -355 -356 0
1 355 181 0
1 355 357 0
1 259 -353 0
1 -259 358 0
1 356 258 0
1 356 -342 0
1 356 254 0
1 -356 -355 0
1 240 342 0
1 240 359 0
1 -360 -259 0
1 360 349 0
1 -360 245 0
1 358 -361 0
1 358 -244 0
1 -254 247 0
1 254 251 0
1 254 -243 0
1 -258 -240 0
1 -258 362 0
1 -258 357 0
1 359 363 0
1 359 268 0
1 -265 -359 0
1 265 357 0
1 -364 265 0
1 364 -258 0
1 364 -259 0
1 364 -262 0
1 -357 -365 0
1 247 366 0
1 247 -258 0
1 247 367 0
1 -247 -359 0
1 362 -259 0
1 -362 368 0
1 -362 369 0
1 -362 -370 0
1 -264 -363 0
1 -264 -371 0
1 -264 262 0
1 264 -159 0
1 -264 -357 0
1 -372 -373 0
1 372 364 0
1 -372 -371 0
1 372 -357 0
1 -372 257 0
1 -371 282 0
1 257 -278 0
1 257 -359 0
1 257 372 0
1 -363 -374 0
1 363 -375 0
1 376 264 0
1 -376 -265 0
1 376 374 0
1 -376 375 0
1 279 -167 0
1 279 -365 0
1 272 -277 0
1 272 377 0
1 272 -257 0
1 -278 373 0
1 278 -277 0
1 -278 -257 0
1 -282 378 0
1 282 -257 0
1 -379 -380 0
1 -379 -381 0
1 -379 -382 0
1 -379 383 0
1 -379 -384 0
1 -385 -382 0
1 385 -379 0
1 385 372 0
1 -373 266 0
1 -373 -278 0
1 -373 383 0
1 373 282 0
1 373 372 0
1 382 379 0
1 -382 281 0
1 -382 -274 0
1 -281 -385 0
1 -281 -379 0
1 384 378 0
1 384 386 0
1 -387 -381 0
1 387 278 0
1 -387 388 0
1 -389 -380 0
1 389 281 0
1 378 -380 0
1 -378 384 0
1 -378 -282 0
1 -390 380 0
1 390 -387 0
1 391 383 0
1 -388 -392 0
1 393 381 0
1 -393 384 0
1 392 180 0
1 -280 -394 0
1 280 -384 0
1 386 -394 0
1 -299 -291 0
1 299 302 0
1 299 395 0
1 -298 287 0
1 -298 -302 0
1 -298 395 0
1 -304 -302 0
1 -304 -396 0
1 -304 -301 0
1 397 302 0
1 -397 -395 0
1 -398 -397 0
1 -398 293 0
1 399 397 0
1 399 -298 0
1 -395 -298 0
1 -395 -400 0
1 313 398 0
1 -305 291 0
1 -401 -396 0
1 -401 -402 0
1 401 -403 0
1 401 -404 0
1 405 291 0
1 405 -406 0
1 405 -308 0
1 405 398 0
1 -405 402 0
1 402 397 0
1 -407 304 0
1 396 -401 0
1 396 408 0
1 -396 -305 0
1 -310 -406 0
1 310 -308 0
1 320 -310 0
1 320 318 0
1 -319 -318 0
1 -319 403 0
1 409 -406 0
1 409 410 0
1 -409 411 0
1 409 -318 0
1 410 -412 0
1 -410 404 0
1 410 409 0
1 -404 401 0
1 404 -413 0
1 -303 -414 0
1 303 415 0
1 303 401 0
1 -303 -403 0
1 -303 -409 0
1 -403 -414 0
1 -403 416 0
1 -403 310 0
1 403 -401 0
1 403 413 0
1 -403 417 0
1 321 -314 0
1 321 -318 0
1 321 -201 0
1 321 322 0
1 -321 418 0
1 -316 -201 0
1 -316 -224 0
1 331 -330 0
1 331 419 0
1 -331 420 0
1 331 239 0
1 331 322 0
1 -331 417 0
1 -331 418 0
1 411 -340 0
1 -411 -421 0
1 -422 423 0
1 -422 -424 0
1 -425 -412 0
1 425 -426 0
1 -425 -413 0
1 425 -418 0
1 418 425 0
1 -340 419 0
1 -340 -337 0
1 340 322 0
1 337 -315 0
1 427 -334 0
1 427 315 0
1 -421 428 0
1 315 427 0
1 -315 -340 0
1 315 -344 0
1 419 412 0
1 419 429 0
1 419 426 0
1 -419 -318 0
1 419 430 0
1 430 -423 0
1 -430 -427 0
1 430 331 0
1 -345 -315 0
1 345 431 0
1 345 329 0
1 345 -223 0
1 345 -326 0
1 -432 -431 0
1 -432 223 0
1 -432 344 0
1 -432 335 0
1 -344 315 0
1 -344 -431 0
1 -344 -433 0
1 -344 333 0
1 -433 345 0
1 -433 432 0
1 329 434 0
1 329 -344 0
1 329 433 0
1 329 -338 0
1 435 -427 0
1 -435 -431 0
1 435 -436 0
1 -435 338 0
1 431 -330 0
1 431 -429 0
1 -431 345 0
1 -431 437 0
1 -354 433 0
1 354 245 0
1 350 -329 0
1 -350 438 0
1 -350 439 0
1 -350 -221 0
1 -350 352 0
1 -350 433 0
1 350 354 0
1 350 -220 0
1 351 352 0
1 353 -233 0
1 -353 -259 0
1 -353 440 0
1 441 361 0
1 441 353 0
1 441 -442 0
1 -441 443 0
1 441 -432 0
1 439 -444 0
1 -439 441 0
1 -335 445 0
1 335 326 0
1 -335 438 0
1 -335 446 0
1 -335 447 0
1 335 354 0
1 438 444 0
1 438 448 0
1 438 -447 0
1 -438 -351 0
1 438 -335 0
1 349 -360 0
1 -349 449 0
1 349 352 0
1 -349 450 0
1 -349 440 0
1 348 -360 0
1 -348 448 0
1 348 439 0
1 -348 -358 0
1 -451 361 0
1 -451 360 0
1 -451 -449 0
1 451 -452 0
1 451 -453 0
1 451 441 0
1 440 -368 0
1 -440 -349 0
1 440 -370 0
1 -452 361 0
1 -452 -454 0
1 -452 -455 0
1 -452 370 0
1 -456 -454 0
1 449 444 0
1 -368 -262 0
1 368 453 0
1 -366 -360 0
1 -366 452 0
1 -366 -368 0
1 366 240 0
1 -457 -440 0
1 -457 458 0
1 -457 370 0
1 370 453 0
1 370 362 0
1 -347 -374 0
1 -347 -457 0
1 -347 -459 0
1 453 366 0
1 -453 460 0
1 -453 -377 0
1 461 361 0
1 -461 -454 0
1 461 -368 0
1 461 -462 0
1 463 -352 0
1 463 -459 0
1 -365 -363 0
1 -365 -464 0
1 365 -376 0
1 377 -465 0
1 -377 364 0
1 -377 464 0
1 -377 357 0
1 -374 347 0
1 -374 278 0
1 374 453 0
1 374 -466 0
1 375 -347 0
1 375 367 0
1 -375 466 0
1 375 376 0
1 -464 365 0
1 464 240 0
1 464 467 0
1 464 370 0
1 -468 -360 0
1 -468 -374 0
1 -468 -459 0
1 468 -370 0
1 -469 468 0
1 469 470 0
1 -469 -457 0
1 -469 358 0
1 -471 -382 0
1 471 -465 0
1 471 472 0
1 -471 -467 0
1 467 -367 0
1 467 -473 0
1 467 281 0
1 467 -257 0
1 -474 465 0
1 -474 -367 0
1 474 -475 0
1 -474 476 0
1 473 471 0
1 -473 -374 0
1 473 364 0
1 -466 -374 0
1 367 -477 0
1 369 478 0
1 369 -477 0
1 369 -367 0
1 -369 -362 0
1 380 -385 0
1 -380 -383 0
1 383 373 0
1 383 -379 0
1 -383 479 0
1 -480 394 0
1 480 -481 0
1 481 -388 0
1 481 466 0
1 -481 476 0
1 475 481 0
1 475 482 0
1 -479 -380 0
1 -483 -480 0
1 -483 476 0
1 -476 -474 0
1 476 -383 0
1 -484 -402 0
1 484 408 0
1 -408 485 0
1 -408 402 0
1 414 485 0
1 414 486 0
1 -417 -486 0
1 -487 -488 0
1 -487 413 0
1 487 489 0
1 -490 491 0
1 -490 -414 0
1 490 -417 0
1 400 -490 0
1 -400 408 0
1 488 485 0
1 -488 340 0
1 -488 -413 0
1 -488 -492 0
1 -488 403 0
1 488 404 0
1 -413 425 0
1 413 -487 0
1 -413 404 0
1 -493 -494 0
1 -493 -428 0
1 -493 -416 0
1 -428 494 0
1 -428 415 0
1 -428 -495 0
1 428 492 0
1 -486 496 0
1 -486 497 0
1 -492 -414 0
1 492 428 0
1 492 -413 0
1 492 498 0
1 -494 407 0
1 494 -499 0
1 494 -414 0
1 494 -417 0
1 423 -415 0
1 423 425 0
1 -423 -492 0
1 -423 500 0
1 423 -422 0
1 -423 -430 0
1 426 -415 0
1 -426 -492 0
1 -426 -430 0
1 501 486 0
1 -501 415 0
1 501 495 0
1 -501 497 0
1 -501 500 0
1 501 -430 0
1 497 -486 0
1 -497 502 0
1 497 503 0
1 -495 410 0
1 495 -428 0
1 -500 428 0
1 -415 504 0
1 416 415 0
1 -416 505 0
1 -416 -501 0
1 429 315 0
1 429 350 0
1 429 435 0
1 -429 500 0
1 437 435 0
1 -437 500 0
1 -437 506 0
1 437 -503 0
1 437 424 0
1 507 -508 0
1 -507 -509 0
1 507 -510 0
1 507 -435 0
1 -424 -448 0
1 424 502 0
1 -424 450 0
1 511 512 0
1 511 -504 0
1 -511 425 0
1 511 497 0
1 -511 -503 0
1 503 -504 0
1 -503 418 0
1 -503 513 0
1 503 436 0
1 450 -510 0
1 450 335 0
1 -448 -431 0
1 -447 434 0
1 447 438 0
1 -445 -361 0
1 445 -509 0
1 510 -445 0
1 -514 444 0
1 514 515 0
1 509 -516 0
1 -509 -517 0
1 508 -509 0
1 -508 518 0
1 -508 -437 0
1 442 -519 0
1 442 -368 0
1 442 -520 0
1 -442 -441 0
1 -444 -366 0
1 -444 514 0
1 -444 449 0
1 -444 521 0
1 -444 335 0
1 515 514 0
1 -515 -457 0
1 -515 -510 0
1 -522 -515 0
1 -522 -520 0
1 -522 -456 0
1 -520 522 0
1 520 -523 0
1 -520 -524 0
1 -520 442 0
1 -434 523 0
1 434 -524 0
1 434 -454 0
1 -434 447 0
1 521 445 0
1 -521 -519 0
1 -521 -442 0
1 521 447 0
1 521 525 0
1 519 523 0
1 -519 515 0
1 -454 -434 0
1 454 452 0
1 -454 -443 0
1 -455 -449 0
1 455 452 0
1 455 463 0
1 455 -443 0
1 -524 374 0
1 -524 526 0
1 524 446 0
1 524 443 0
1 462 527 0
1 -443 -441 0
1 -443 -528 0
1 443 462 0
1 526 529 0
1 -446 -522 0
1 446 529 0
1 -446 530 0
1 -446 -531 0
1 446 -532 0
1 530 -522 0
1 -530 -455 0
1 -533 534 0
1 533 -463 0
1 533 459 0
1 459 -461 0
1 -459 -535 0
1 459 532 0
1 470 536 0
1 470 -460 0
1 -470 -528 0
1 -470 443 0
1 -528 -536 0
1 537 478 0
1 -537 533 0
1 537 -538 0
1 -534 -470 0
1 -534 -533 0
1 -534 539 0
1 534 -538 0
1 -534 -528 0
1 534 -459 0
1 527 524 0
1 -527 535 0
1 -535 449 0
1 535 459 0
1 535 -462 0
1 477 -380 0
1 477 468 0
1 477 -529 0
1 477 -538 0
1 478 540 0
1 -539 -478 0
1 539 -534 0
1 -539 481 0
1 539 -369 0
1 541 470 0
1 460 477 0
1 -460 -453 0
1 536 -461 0
1 536 542 0
1 542 -536 0
1 -542 -470 0
1 -542 -463 0
1 -542 -539 0
1 -498 543 0
1 498 416 0
1 498 -436 0
1 -544 545 0
1 -544 494 0
1 -544 415 0
1 544 489 0
1 546 547 0
1 545 513 0
1 489 -512 0
1 505 -504 0
1 505 -415 0
1 -505 -416 0
1 505 495 0
1 -504 -448 0
1 504 547 0
1 -504 -416 0
1 -504 -500 0
1 513 511 0
1 513 547 0
1 -513 447 0
1 -512 -548 0
1 496 516 0
1 496 -512 0
1 496 549 0
1 -496 550 0
1 548 -516 0
1 -548 -546 0
1 -548 513 0
1 -499 551 0
1 -547 512 0
1 552 -442 0
1 553 444 0
1 -553 496 0
1 -553 502 0
1 553 554 0
1 -518 516 0
1 -518 -554 0
1 -518 555 0
1 -516 522 0
1 -516 508 0
1 516 -556 0
1 516 518 0
1 516 -554 0
1 -557 -495 0
1 -557 552 0
1 557 -513 0
1 557 -558 0
1 -555 -559 0
1 555 -560 0
1 555 -500 0
1 -555 525 0
1 -556 -561 0
1 -560 557 0
1 -560 -521 0
1 -560 555 0
1 -560 -525 0
1 -525 -508 0
1 -525 562 0
1 -525 510 0
1 -525 -550 0
1 563 564 0
1 563 519 0
1 563 565 0
1 -566 -567 0
1 566 -568 0
1 -566 -555 0
1 -569 563 0
1 569 566 0
1 565 -570 0
1 565 -560 0
1 571 -560 0
1 571 -572 0
1 562 -571 0
1 -562 560 0
1 562 -558 0
1 -562 -566 0
1 -562 525 0
1 -523 564 0
1 -523 567 0
1 -523 -569 0
1 523 517 0
1 -532 564 0
1 532 -519 0
1 532 -523 0
1 532 -517 0
1 532 -521 0
1 532 -459 0
1 -532 -558 0
1 570 573 0
1 -570 -569 0
1 -574 575 0
1 574 -530 0
1 574 517 0
1 574 568 0
1 -574 -573 0
1 574 565 0
1 568 -563 0
1 -568 566 0
1 567 570 0
1 -567 523 0
1 517 -576 0
1 517 523 0
1 517 -577 0
1 564 -563 0
1 -564 -574 0
1 529 531 0
1 -531 568 0
1 -531 -578 0
1 540 -478 0
1 540 576 0
1 579 -567 0
1 579 577 0
1 573 580 0
1 -573 531 0
1 580 434 0
1 581 521 0
1 549 -582 0
1 550 496 0
1 550 -548 0
1 -561 -583 0
1 561 582 0
1 561 -584 0
1 561 -585 0
1 586 551 0
1 -586 -561 0
1 586 583 0
1 586 -585 0
1 587 -588 0
1 587 -561 0
1 587 558 0
1 587 -586 0
1 587 550 0
1 582 -588 0
1 582 489 0
1 -589 -491 0
1 589 -561 0
1 -589 -549 0
1 -589 -550 0
1 -583 586 0
1 559 556 0
1 559 523 0
1 -559 -557 0
1 -559 585 0
1 -559 -554 0
1 558 557 0
1 -558 -584 0
1 -588 551 0
1 588 590 0
1 588 591 0
1 -588 582 0
1 -588 585 0
1 572 587 0
1 572 588 0
1 -572 591 0
1 -572 -584 0
1 -572 562 0
1 590 -496 0
1 590 588 0
1 -590 559 0
1 590 572 0
1 585 592 0
1 -585 561 0
1 -551 -588 0
1 -551 -584 0
1 -551 572 0
1 551 -558 0
1 584 551 0
1 584 561 0
1 592 578 0
1 592 562 0
1 -592 -565 0
1 578 -592 0
1 -578 591 0
1 -578 -531 0
1 -578 593 0
1 -578 -565 0
1 -576 -590 0
1 576 517 0
1 -577 -564 0
1 -577 -517 0
1 -594 576 0
1 -594 -572 0
1 593 588 0
